Traveling Salesman Problem/TSP_generados/Aleatorio1621103298_8.tsp
NAME: Aleatorio1621103298_8.tsp
COMMENT: Randomly generated scenario
TYPE: TSP
DIMENSION: 8
EDGE_WEIGHT_TYPE: ATT
NODE_COORD_SECTION
1 29.87 12.72
2 45.42 17.27
3 9.76 2.44
4 2.98 43.81
5 6.63 30.47
6 2.73 20.8
7 10.71 26.53
8 14.93 3.03
