Traveling Salesman Problem/TSP_generados/Aleatorio1621103298_8.opt.tour
NAME: Aleatorio1621103298_8.opt.tour
COMMENT: Optimal solution for Aleatorio1621103298_8 (137.31024841093472)
TYPE: TOUR
DIMENSION: 8
TOUR_SECTION
1 2 7 5 4 6 3 8
-1
EOF
